solution status: optimal solution found
objective value:                                    0
$_132_y                                            18 	(obj:0)
$_132_z                                            24 	(obj:0)
$_16__2_y                                          18 	(obj:0)
$_16__2_z                                          25 	(obj:0)
$_52_y                                             19 	(obj:0)
$_52_z                                             19 	(obj:0)
$_189_y                                            19 	(obj:0)
$_189_z                                            25 	(obj:0)
$_71_y                                             14 	(obj:0)
$_71_z                                             20 	(obj:0)
$_40_y                                             19 	(obj:0)
$_40_z                                             24 	(obj:0)
$_30_y                                             17 	(obj:0)
$_30_z                                             25 	(obj:0)
$_31_y                                             15 	(obj:0)
$_31_z                                             25 	(obj:0)
$_69_y                                             15 	(obj:0)
$_69_z                                             19 	(obj:0)
$_12_y                                             25 	(obj:0)
$_12_z                                             24 	(obj:0)
$_15__2_y                                          25 	(obj:0)
$_15__2_z                                          22 	(obj:0)
$_13__2_y                                          16 	(obj:0)
$_13__2_z                                          25 	(obj:0)
$_188_y                                            20 	(obj:0)
$_188_z                                            24 	(obj:0)
$_68_y                                             15 	(obj:0)
$_68_z                                             20 	(obj:0)
$_66_y                                             17 	(obj:0)
$_66_z                                             20 	(obj:0)
$_165_y                                            16 	(obj:0)
$_165_z                                            23 	(obj:0)
$_53_y                                             17 	(obj:0)
$_53_z                                             21 	(obj:0)
$_11__2_y                                          25 	(obj:0)
$_11__2_z                                          23 	(obj:0)
$_89_y                                             14 	(obj:0)
$_89_z                                             19 	(obj:0)
$_149_y                                            17 	(obj:0)
$_149_z                                            24 	(obj:0)
$_14__2_y                                          25 	(obj:0)
$_14__2_z                                          25 	(obj:0)
$_33_y                                             18 	(obj:0)
$_33_z                                             21 	(obj:0)
$_55_y                                             16 	(obj:0)
$_55_z                                             21 	(obj:0)
$_67_y                                             16 	(obj:0)
$_67_z                                             20 	(obj:0)
$_62_y                                             19 	(obj:0)
$_62_z                                             18 	(obj:0)
